p cnf 27 16
-23 -22 -1 -9 0
-11 -8 -37 -1 -33 0
-38 -5 -25 0
-23 -6 -38 0
-32 -5 -19 39 0
-16 -30 -10 -23 -39 -1 0
-30 -14 -25 -9 -39 -3 0
-27 -26 -9 -39 -4 0
-31 -26 -9 -8 27 -18 0
-14 19 38 -9 -20 0
-32 -19 -27 -1 0
-23 -19 -9 0
9 -14 37 -27 0
-37 -10 -5 0
-6 -4 5 -33 0
-8 -12 0
